(declare-fun temp1202_2 () (_ BitVec 64))
(declare-fun temp1202_1 () (_ BitVec 64))
(declare-fun temp1202_4 () (_ BitVec 64))
(declare-fun temp1202_3 () (_ BitVec 64))
(declare-fun temp1202_6 () (_ BitVec 64))
(declare-fun temp1202_5 () (_ BitVec 64))
(declare-fun temp1202_8 () (_ BitVec 64))
(declare-fun temp1202_7 () (_ BitVec 64))
(declare-fun temp1202_9 () (_ BitVec 64))
(declare-fun var2174808 () (_ BitVec 64))
(declare-fun var2174932 () (_ BitVec 64))
(declare-fun temp1202_11 () (_ BitVec 64))
(declare-fun temp1202_10 () (_ BitVec 64))
(declare-fun temp1202_13 () (_ BitVec 64))
(declare-fun temp1202_12 () (_ BitVec 64))
(declare-fun temp1202_15 () (_ BitVec 64))
(declare-fun temp1202_14 () (_ BitVec 64))
(declare-fun temp1202_17 () (_ BitVec 64))
(declare-fun temp1202_16 () (_ BitVec 64))
(declare-fun temp1202_18 () (_ BitVec 64))
(declare-fun var5320536 () (_ BitVec 64))
(declare-fun var5320660 () (_ BitVec 64))
(declare-fun temp1202_20 () (_ BitVec 64))
(declare-fun temp1202_19 () (_ BitVec 64))
(declare-fun temp1202_22 () (_ BitVec 64))
(declare-fun temp1202_21 () (_ BitVec 64))
(declare-fun temp1202_24 () (_ BitVec 64))
(declare-fun temp1202_23 () (_ BitVec 64))
(declare-fun temp1202_26 () (_ BitVec 64))
(declare-fun temp1202_25 () (_ BitVec 64))
(declare-fun temp1202_28 () (_ BitVec 64))
(declare-fun temp1202_27 () (_ BitVec 64))
(declare-fun temp1202_29 () (_ BitVec 64))
(declare-fun var8204120 () (_ BitVec 64))
(declare-fun var8204244 () (_ BitVec 64))
(declare-fun temp1202_30 () (_ BitVec 64))
(declare-fun var8456775 () (_ BitVec 64))
(assert (= temp1202_2 #x0000000000000000))
(assert (= temp1202_1 temp1202_2))
(assert (= temp1202_4 #x0000000000000001))
(assert (= temp1202_3 temp1202_4))
(assert (= temp1202_6 #x0000000000000000))
(assert (= temp1202_5 temp1202_6))
(assert (= temp1202_8 #x0000000000000001))
(assert (= temp1202_7 temp1202_8))
(assert (= temp1202_9 #x0000000000000000))
(assert (= var2174808 temp1202_9))
(assert (= var2174932 var2174808))
(assert (= temp1202_11 #x0000000000000000))
(assert (= temp1202_10 temp1202_11))
(assert (= temp1202_13 #x0000000000000001))
(assert (= temp1202_12 temp1202_13))
(assert (= temp1202_15 #x0000000000000000))
(assert (= temp1202_14 temp1202_15))
(assert (= temp1202_17 #x0000000000000001))
(assert (= temp1202_16 temp1202_17))
(assert (= temp1202_18 #x0000000000000000))
(assert (= var5320536 temp1202_18))
(assert (= var5320660 var5320536))
(assert (= temp1202_20 #x0000000000000001))
(assert (= temp1202_19 temp1202_20))
(assert (= temp1202_22 #x0000000000000000))
(assert (= temp1202_21 temp1202_22))
(assert (= temp1202_24 #x0000000000000001))
(assert (= temp1202_23 temp1202_24))
(assert (= temp1202_26 #x0000000000000000))
(assert (= temp1202_25 temp1202_26))
(assert (= temp1202_28 #x0000000000000001))
(assert (= temp1202_27 temp1202_28))
(assert (= temp1202_29 #x0000000000000000))
(assert (= var8204120 temp1202_29))
(assert (= var8204244 var8204120))
(assert (= temp1202_30 #x0000000000000690))
(assert (= var8456775 temp1202_30))
(model-add temp1202_2 () (_ BitVec 64) #x0000000000000000)
(model-add temp1202_1 () (_ BitVec 64) #x0000000000000000)
(model-add temp1202_4 () (_ BitVec 64) #x0000000000000001)
(model-add temp1202_3 () (_ BitVec 64) #x0000000000000001)
(model-add temp1202_6 () (_ BitVec 64) #x0000000000000000)
(model-add temp1202_5 () (_ BitVec 64) #x0000000000000000)
(model-add temp1202_8 () (_ BitVec 64) #x0000000000000001)
(model-add temp1202_7 () (_ BitVec 64) #x0000000000000001)
(model-add temp1202_9 () (_ BitVec 64) #x0000000000000000)
(model-add var2174808 () (_ BitVec 64) #x0000000000000000)
(model-add var2174932 () (_ BitVec 64) #x0000000000000000)
(model-add temp1202_11 () (_ BitVec 64) #x0000000000000000)
(model-add temp1202_10 () (_ BitVec 64) #x0000000000000000)
(model-add temp1202_13 () (_ BitVec 64) #x0000000000000001)
(model-add temp1202_12 () (_ BitVec 64) #x0000000000000001)
(model-add temp1202_15 () (_ BitVec 64) #x0000000000000000)
(model-add temp1202_14 () (_ BitVec 64) #x0000000000000000)
(model-add temp1202_17 () (_ BitVec 64) #x0000000000000001)
(model-add temp1202_16 () (_ BitVec 64) #x0000000000000001)
(model-add temp1202_18 () (_ BitVec 64) #x0000000000000000)
(model-add var5320536 () (_ BitVec 64) #x0000000000000000)
(model-add var5320660 () (_ BitVec 64) #x0000000000000000)
(model-add temp1202_20 () (_ BitVec 64) #x0000000000000001)
(model-add temp1202_19 () (_ BitVec 64) #x0000000000000001)
(model-add temp1202_22 () (_ BitVec 64) #x0000000000000000)
(model-add temp1202_21 () (_ BitVec 64) #x0000000000000000)
(model-add temp1202_24 () (_ BitVec 64) #x0000000000000001)
(model-add temp1202_23 () (_ BitVec 64) #x0000000000000001)
(model-add temp1202_26 () (_ BitVec 64) #x0000000000000000)
(model-add temp1202_25 () (_ BitVec 64) #x0000000000000000)
(model-add temp1202_28 () (_ BitVec 64) #x0000000000000001)
(model-add temp1202_27 () (_ BitVec 64) #x0000000000000001)
(model-add temp1202_29 () (_ BitVec 64) #x0000000000000000)
(model-add var8204120 () (_ BitVec 64) #x0000000000000000)
(model-add var8204244 () (_ BitVec 64) #x0000000000000000)
(model-add temp1202_30 () (_ BitVec 64) #x0000000000000690)
(model-add var8456775 () (_ BitVec 64) #x0000000000000690)






